c Lingeling SAT Solver
c 
c Version ala b02aa1a04343558c4252b5f4a723be021964f652
c 
c Copyright (C) 2010-2012 Armin Biere JKU Linz Austria.
c All rights reserved.
c 
c released Sat Oct 13 14:05:26 CEST 2012
c compiled Sat Feb 16 02:48:12 EST 2013
c 
c gcc (Debian 4.4.5-8) 4.4.5
c -Wall -O3 -DNLGLOG -DNDEBUG -DNCHKSOL -DNLGLPICOSAT 
c Linux greencar2 2.6.32-5-amd64 x86_64
c 
c reading input file p78.cnf
c no embedded options
c found 'p cnf 224553 693162' header
c read 224553 variables, 693162 clauses, 1441493 literals in 0.0 seconds
c
c feature vars 224553
c feature lits.total 1441493
c feature lits.pos 768613
c feature lits.neg 672880
c feature clauses.total 693162
c feature clauses.unit 84161
c feature clauses.bin 488671
c feature clauses.trn 118930
c feature clauses.lrg 1400
c feature cog.val.min 1
c feature cog.val.avg 100038
c feature cog.val.max 215477
c feature cog.var.min 1
c feature cog.var.avg 112277
c feature cog.var.max 224552
c
c
c --abstime=0
c --acts=2
c --actavgmax=120
c --actstdmin=20
c --actstdmax=80
c --agile=23
c --bias=2
c --block=1
c --blkrtc=0
c --blkclslim=2000
c --blkocclim=2000
c --blkmaxeff=2147483647
c --blkmineff=10000000
c --blkreleff=20
c --card=0
c --cce=3
c --ccemaxeff=100000000
c --ccemineff=5000000
c --ccereleff=3
c --check=0
c --cgrclsr=1
c --cgrmaxority=20
c --cgrmaxeff=8000000
c --cgrmineff=200000
c --cgreleff=1
c --cgrexteq=1
c --cgrextand=1
c --cgrextunits=1
c --cgrextite=1
c --cgrextxor=1
c --cliff=1
c --cliffreleff=8
c --cliffmineff=10000000
c --cliffmaxeff=100000000
c --compact=0
c --decompose=1
c --defragint=10000000
c --defragfree=50
c --elim=1
c --elmrtc=0
c --elmblk=1
c --elmclslim=1000
c --elmocclim=1000
c --elmaxeff=100000000
c --elmineff=5000000
c --elmreleff=10
c --sleeponabort=0
c --exitonabort=0
c --flipping=1
c --flipint=2
c --flipdur=50
c --fliptop=1
c --force=0
c --gauss=1
c --gaussextrall=1
c --gaussmaxor=20
c --gaussexptrn=1
c --gaussmaxeff=50000000
c --gaussmineff=2000000
c --gaussreleff=2
c --gluescale=2
c --gluekeep=0
c --inprocessing=1
c --cintinc=10000
c --irrlim=20
c --lift=1
c --lftmaxeff=20000000
c --lftmineff=500000
c --lftreleff=6
c --lhbr=1
c --lkhd=1
c --clim=-1
c --mocint=1000
c --move=2
c --log=-1
c --otfs=1
c --phase=0
c --phaseneginit=0
c --plain=0
c --probe=1
c --prbasicmaxeff=100000000
c --prbasicmineff=1000000
c --prbasicreleff=10
c --prbasic=1
c --prbasicroundlim=9
c --queuemergelim=10000
c --queuefactor=833
c --queueinc=20
c --rmincpen=4
c --seed=0
c --smallirr=90
c --smallve=1
c --smallvevars=12
c --randec=1
c --randecint=1000
c --redfixed=0
c --redlbound=0
c --redlexpfac=10
c --redldoutfac=0
c --redloutinc=10000
c --redlinit=1000
c --redlinc=1000
c --redinoutinc=100
c --redlmininc=10
c --redlmaxinc=200
c --redlminrel=10
c --redlmaxrel=300
c --redlminabs=500
c --redlmaxabs=1000000
c --reduce=1
c --restart=2
c --restartint=5
c --rstinoutinc=110
c --simplify=1
c --simpdelay=100
c --simpen=4
c --sizepen=1000000
c --sizemaxpen=3
c --sortlits=0
c --syncint=111111
c --termint=122222
c --ternres=1
c --ternresrtc=0
c --trnrmineff=4000000
c --trnrmaxeff=40000000
c --trnreleff=10
c --transred=1
c --trdmineff=100000
c --trdmaxeff=2000000
c --trdreleff=10
c --unhide=1
c --unhdextstamp=1
c --unhdhbr=0
c --unhdmaxeff=20000000
c --unhdmineff=1000000
c --unhdreleff=4
c --unhdlnpr=3
c --unhdroundlim=5
c --verbose=1
c --witness=1
c [limits] no conflict limit
c [limits] simplification delayed by 100 to 100 conflicts
c 
c  seconds         irredundant          redundant clauses agility   height
c          variables clauses conflicts large binary ternary    glue         MB
c 
c *    0.0  122530   511127         0       0      0     0  64  0.0   0.0   42
c [cut-width] 170218, max 267198, min4 108496 at 75%, min10 35345 at 89%
c [decision-order] bias 1, old 1
c [queue-schedule-all-variables]
c s    0.0  122530   511127         0       0      0     0  64  0.0   0.0   42
c [simplification-1] limit hit at 100 conflicts
c [simplification-1] simplification penalty of 4
c [ternres-1] limit 4000000 with penalty 0 = 0 + 0
c [ternres-1] all 122530 free variables schedulable
c [ternres-1] 0 ternary resolvents (0 bin, 0 trn)
c [ternres-1] 7967 variables remain 7% (114563 retained)
c [gauss-1] limit 2000000 penalty 0 = 0 + 0
c [gauss-1] extracted 168860 xors of average arity 2.0
c [gauss-1] connected 337723 occurrences of 91826 variables (average 3.7)
c [gauss-1] limit 2000000 penalty 0 = 0 + 0
c [gauss-1] exported 0 unary, 0 binary and 0 ternary equations
c G    1.2  122530   488170       100     100      0     0  59  5.8 357.7   27
c d    1.5   56103   252586       100     100      0     0  59  5.8 357.7   21
c [basicprobe-1] limit 1000000 penalty 0 = 0 + 0
c [basicprobe-1-0] 4455 probes remain 8% after last round
c [basicprobe-1-0] removed 0 variables, found 6593 hbrs
c p    1.6   56103   252586       100     100   6593     0  59  5.8 357.7   25
c [cgrclsr-1] limit 200000 penalty 0 = 0 + 0
c [cgrclsr-1] all 56103 free variables schedulable
c [cgrclsr-1] fully completed congruence closure
c [lift-1] limit 500000 with penalty 0 = 0 + 0
c [lift-1] using 56103 probes 100%
c [lift-1] 56054 variables remain 100% (49 retained)
c [cliff-1] limit of 10000000 steps penalty 0 = 0 + 0
c [cliff-1] failed 0, lifted 0
c [unhide-1] limit 1000000 with penalty 0 = 0 + 0
c [unhide-1-1] 0 units, 0 failed, 22902 tauts, 0 hbrs, 63 literals
c u    2.7   56103   229684       100     100  18414     0  59  5.8 357.7   25
c [transred-1] limit 100000 with penalty 0 = 0 + 0
c t    2.7   56103   229682       100     100  18406     0  59  5.8 357.7   25
c [block-1] scheduling all variables this time
c [block-1] scheduled 56103 variables 100%
c [block-1] limit of 10000000 steps penalty 0 = 0 + 0
c [block-1] fully completed blocked clause elimination
c [block-1] transition to [ all 0 rem 0 ] state
c [block-1] eliminated 4800 blocked clauses
c k    2.9   56103   224882       100     100  18406  4800  59  5.8 357.7   21
c [cce-1] scheduling all variables this time
c [cce-1] limit of 10000000 steps penalty 0 = 0 + 0
c [cce-1] incomplete covered clause elimination 50362 not tried 90%
c [cce-1] transition to [ all 1 rem 1 ] state
c [cce-1] eliminated 118 covered clauses
c E    3.7   56101   224764       100     100  28718  4800  59  5.8 357.7   21
c [elim-1] scheduling all variables this time
c [elim-1] scheduled 56101 variables 100%
c [elim-1] limit of 5000000 steps penalty 0 = 0 + 0
c [elim-1] incomplete variable elimination 41032 not tried 73%
c [elim-1] transition to [ all 1 rem 1 ] state
c [elim-1] eliminated 6737 = 12% variables out of 56101
c e    5.2   49364   220564       100      55   8088   610  59  5.8 357.7   20
c [phase-1] phase bias: 883 positive 15%, 4886 negative 85%
c [simplification-1] removed 73166 variables 59%
c [simplification-1] limit increments divided by 30
c [simplification-1] arithmetic increase of conflict limit interval by 333
c [simplification-1] new irredundant limit 2245869
c [simplification-1] new conflict limit 433
c [simplification-1] simplification penalty reduced to 3
c R    5.5   49364   220564       407     326   8102   631  10  6.5 380.7   25
c [simplification-2] limit hit at 433 conflicts
c [simplification-2] simplification penalty of 3
c [ternres-2] limit 2000000 with penalty 1 = 1 + 0
c [ternres-2] 3215 schedulable variables 7%
c [ternres-2] 0 ternary resolvents (0 bin, 0 trn)
c [ternres-2] fully completed ternary resolution
c [gauss-2] limit 1000000 penalty 1 = 1 + 0
c [gauss-2] extracted 501 xors of average arity 3.0
c [gauss-2] connected 1503 occurrences of 1179 variables (average 1.3)
c [gauss-2] limit 1000000 penalty 1 = 1 + 0
c [gauss-2] fully completed
c [gauss-2] exported 0 unary, 0 binary and 0 ternary equations
c G    5.7   49364   220564       433     347   8103   635   8  6.4 363.3   21
c [basicprobe-2] limit 500000 penalty 1 = 1 + 0
c [basicprobe-2-0] 4584 probes remain 9% after last round
c [basicprobe-2-0] removed 0 variables, found 808 hbrs
c p    5.9   49364   220564       433     347   8911   635   8  6.4 363.3   25
c [cgrclsr-2] limit 100000 penalty 1 = 1 + 0
c [cgrclsr-2] all 49364 free variables schedulable
c [cgrclsr-2] fully completed congruence closure
c [lift-2] limit 250000 with penalty 1 = 1 + 0
c [lift-2] using 49319 probes 100%
c [lift-2] 49295 variables remain 100% (69 retained)
c [cliff-2] limit of 5000000 steps penalty 1 = 1 + 0
c [cliff-2] failed 0, lifted 0
c [unhide-2] limit 1000000 with penalty 0 = 0 + 0
c [unhide-2-2] 0 units, 0 failed, 1890 tauts, 0 hbrs, 153 literals
c u    6.6   49364   220559       433     342   7418   639   8  6.4 363.3   25
c [transred-3] limit 100000 with penalty 0 = 0 + 0
c t    6.6   49364   220557       433     342   7413   639   8  6.4 363.3   25
c [block-2] scheduling all variables this time
c [block-2] scheduled 49364 variables 100%
c [block-2] limit of 10000000 steps penalty 0 = 0 + 0
c [block-2] fully completed blocked clause elimination
c [block-2] transition to [ all 0 rem 0 ] state
c [block-2] eliminated 0 blocked clauses
c [cce-2] 46426 variables 94% will be scheduled this time
c [cce-2] limit of 10000000 steps penalty 0 = 0 + 0
c [cce-2] 45763 variables 93% remain to be tried next time
c [cce-2] transition to [ all 0 rem 1 ] state
c [cce-2] eliminated 398 covered clauses
c E    7.4   49364   220159       433     342   8002   639   8  6.4 363.3   21
c [elim-2] 40968 variables 83% will be scheduled this time
c [elim-2] scheduled 40968 variables 83%
c [elim-2] limit of 5000000 steps penalty 0 = 0 + 0
c [elim-2] 30825 variables 62% remain to be tried next time
c [elim-2] transition to [ all 0 rem 1 ] state
c [elim-2] eliminated 1108 = 2% variables out of 49364
c e    9.1   48256   219673       433     340   5794   638   8  6.4 363.3   21
c [phase-2] phase bias: 1 positive 100%, 0 negative 0%
c [simplification-2] removed 1108 variables 2%
c [simplification-2] limit increments divided by 2
c [simplification-2] arithmetic increase of conflict limit interval by 5000
c [simplification-2] new irredundant limit 2245869
c [simplification-2] new conflict limit 5766
c [simplification-2] simplification penalty reduced to 2
c R    9.5   48256   219673       973     792   5813   701   4  6.3 319.0   25
c -    9.8   48256   219673      1252     507   5826   747   2  5.8 278.4   25
c R   10.4   48256   219673      2266    1412   5865   810   4  6.4 269.5   25
c -   11.9   48256   219673      4212    1536   5922  1033   4  6.3 258.8   25
c R   12.2   48256   219673      5174    2461   5930  1059   6  7.5 278.5   25
c [simplification-3] limit hit at 5766 conflicts
c [simplification-3] simplification penalty of 2
c [ternres-3] limit 1000000 with penalty 2 = 2 + 0
c [ternres-3] all 48256 free variables schedulable
c [ternres-3] 74 ternary resolvents (0 bin, 74 trn)
c [ternres-3] 33834 variables remain 70% (14422 retained)
c T   12.7   48256   219673      5766    2941   5965  1200   2  7.1 263.0   26
c [gauss-3] limit 500000 penalty 2 = 2 + 0
c [gauss-3] extracted 236 xors of average arity 3.0
c [gauss-3] connected 708 occurrences of 651 variables (average 1.1)
c [gauss-3] limit 500000 penalty 2 = 2 + 0
c [gauss-3] fully completed
c [gauss-3] exported 0 unary, 0 binary and 0 ternary equations
c 
c  seconds         irredundant          redundant clauses agility   height
c          variables clauses conflicts large binary ternary    glue         MB
c 
c G   12.8   48256   219673      5766    2941   5965  1200   2  7.1 263.0   21
c [basicprobe-3] limit 250000 penalty 2 = 2 + 0
c [basicprobe-3-0] 4386 probes remain 9% after last round
c [basicprobe-3-0] removed 0 variables, found 269 hbrs
c p   13.0   48256   219673      5766    2941   6234  1192   2  7.1 263.0   25
c [cgrclsr-3] limit 69001 based on 552015 irredundant literals
c [cgrclsr-3] all 48256 free variables schedulable
c [cgrclsr-3] fully completed congruence closure
c [lift-3] limit 125000 with penalty 2 = 2 + 0
c [lift-3] using 48188 probes 100%
c [lift-3] 48176 variables remain 100% (80 retained)
c [cliff-3] limit of 2500000 steps penalty 2 = 2 + 0
c [cliff-3] failed 0, lifted 0
c [unhide-3] limit 1000000 with penalty 0 = 0 + 0
c [unhide-3-3] 0 units, 0 failed, 1475 tauts, 0 hbrs, 1437 literals
c u   13.7   48256   218240      5766    2894   6391  1189   2  7.1 263.0   25
c [transred-5] limit 631248 with penalty 0 = 0 + 0
c t   13.7   48256   218229      5766    2894   6366  1189   2  7.1 263.0   25
c [block-3] scheduling all variables this time
c [block-3] scheduled 48256 variables 100%
c [block-3] limit of 5000000 steps penalty 1 = 1 + 0
c [block-3] fully completed blocked clause elimination
c [block-3] transition to [ all 0 rem 0 ] state
c [block-3] eliminated 0 blocked clauses
c [cce-3] scheduling all variables this time
c [cce-3] limit of 10000000 steps penalty 0 = 0 + 0
c [cce-3] 44281 variables 92% remain to be tried next time
c [cce-3] transition to [ all 1 rem 1 ] state
c [cce-3] eliminated 381 covered clauses
c E   14.6   48256   217848      5766    2894   6874  1174   2  7.1 263.0   21
c [elim-3] scheduling all variables this time
c [elim-3] scheduled 48256 variables 100%
c [elim-3] limit of 5000000 steps penalty 0 = 0 + 0
c [elim-3] 29322 variables 61% remain to be tried next time
c [elim-3] transition to [ all 1 rem 1 ] state
c [elim-3] eliminated 542 = 1% variables out of 48256
c e   16.2   47714   217458      5766    2868   5873  1161   2  7.1 263.0   21
c [simplification-3] removed 542 variables 1%
c [simplification-3] no reduction of limit increments
c [simplification-3] arithmetic increase of conflict limit interval by 10000
c [simplification-3] new irredundant limit 2245869
c [simplification-3] new conflict limit 21099
c [simplification-3] simplification penalty reduced to 1
c 1   17.5   47714   217458      7303    4152   5925  1350   5  6.8 262.4   26
c 
c  seconds         irredundant          redundant clauses agility   height
c          variables clauses conflicts large binary ternary    glue         MB
c 
c blkd: 3 bces, 4800 removed, 1980246 resolutions, 5460747 steps
c blkd: 4800 blocking literals 1%, 0 pure
c cces: 3 cces, 889 eliminated, 889 ate 100%, 0 abce 0%
c cces: 19540 probed, 1 lifted, 2 failed
c clff: 3 cliffs, 0 lifted, 0 failed
c clff: 9816 decisions, 17509729 steps
c clls: 1 sat, 0 simp, 0 freeze, 0 melt
c clls: 2134655 add, 0 assume,, 0 deref, 0 failed
c clls: 0 cassume, 0 mosat
c coll: 16 gcs, 0 rescored clauses
c cgrs: 3 count, 369010 esteps, 90106 csteps
c cgrs: 0 eqs, 0 units
c cgrs: 0 matched (0 ands 0%, 0 xors 0%, 0 ites 0%)
c cgrs: 0 simplified (0 ands 0%, 0 xors 0%, 0 ites 0%)
c cgrs: 2384 extracted (2041 ands 86%, 343 xors 14%, 0 ites 0%)
c dcps: 3 decompositions, 66427 equivalent 30%
c decs: 163042 decision, 157 random 0.096%
c decs: 40391 flipped 24.773% (in 47 phases)
c elms: 3 elims, 8387 eliminated 4%
c elms: 8387 small 100%, 0 large 0%
c elms: 36877 tried small, 8387 succeeded 23%, 28490 failed 77%
c elms: 0 subsumed, 0 strengthened, 0 blocked
c elms: 482406 copies, 330962 resolutions, 975002 ipos
c elms: 0 subchks, 0 strchks
c frcs: 0 computed, 22.7 - 77.3 average min-cut range
c gaus: 3 extractions, 169597 extracted, 2.0 size, 3 max
c gaus: exported 0 units, 0 binary and 0 ternary equations
c gaus: 0 gc, 7000180 steps, 3500090 extr 50%, 2262909 elim 32%
c glue: 6.8 avg, 2.6 scaled avg
c glue: 0 maxredglue=15 (0%)
c lift: 3 phases, 509 probed (170 level1 33%, 339 level2 67%)
c lift: 0 units, 0 equivalences, 2 implications
c hbrs: 30559 hbrs = 30559 trn 100% + 0 lrg 0%, 25 sub 0%
c lrnd: 7240 clauses, 4360 uips 60%, 19.6 length, 6.8 glue
c ints: 382 luby (45270 steps), 0 inout (0 steps)
c mins: 141734 learned lits, 4% minimized
c move: moved 5689, 889 binary 16%, 4800 ternary 84%
c otfs: str 311 dyn (271 red, 40 irr) 63 drv 20%, 248 rst 80%
c otfs: sub 0 dyn (0 red, 0 irr)
c phas: 2 computed, 5929 set, 884 pos (15%), 5045 neg (85%)
c prbs: 3 basic, 2254 probed, 0 failed, 0 lifted
c prps: 23626118 props, 100 props/dec
c prps: 69% srch, 31% simp, 0% lkhd
c psns: 526513 searches, 68780 hits, 13% hit rate
c queu: 22247 new, 7469 del, 120 maximum priority
c queu: 14758 merged, 12243 collected, 4 gcs
c queu: 7551 deprioritized, 21.0 lines on average
c reds: 2 count, 0 reset, 2 acts 100%, 0 exp 0%
c reds: 2 arithmetic 100%, 2 double 100%
c rmbd: 5 removed, 0 red 0%
c rsts: 339 restarts 89%, 42 skipped 11%
c rsts: 56 kept 16.5% average 44.3%
c simp: 3 count (0 ilim 0%, 0 plim 0%, 3 clim 100%)
c trnr: 3 count, 0 bin, 74 trn, 5199146 steps
c tops: 102025 fixed 45%, 0 iterations
c trds: 6 transitive reductions, 53 removed, 0 failed
c trds: 1313 nodes, 1777 edges, 832720 steps
c unhd: 3 count, 3 rounds, 3463833 steps
c unhd: 0 non-trivial sccs of average size 0.0
c unhd: 0 units, 0 bin, 0 trn, 0 lrg
c unhd: 0 failed, 0 stamp, 0 lits, 0 bin, 0 trn, 0 lrg
c unhd: 26267 tauts, 0 bin 0%, 574 trn 2%, 25 lrg 0%
c unhd: 26267 tauts, 25668 stamp 98%, 1932 red 7%
c unhd: 0 hbrs, 0 trn 0%, 0 lrg 0%, 0 red 0%
c unhd: 1653 strd, 0 bin 0%, 6 trn 0%, 1647 lrg 100%, 1652 red 100%
c vars: 47714 remaining 21% and 176839 removed 79% out of 224553
c vars: 102025 fixed 45%, 8387 eliminated 4%, 66427 equivalent 30%
c vsts: 116138934 visits, 71% srch, 29% simp, 0% lkhd
c vsts: 5.1 search visits per propagation 11348.4 per conflict
c wchs: 11825217 pushed, 4886465 enlarged, 28 defrags
c 
c scaledglue  added       reduced       forcing      resolved     conflicts
c 
c all      6312 100      2023 100     50473 100     11820 100       980 100
c 
c  0          0   0         0   0         0   0         0   0         0   0 
c  1         42   1         0   0       774   2        71   1         0   0 
c  2       2421  38       878  43     26661  53      4047  34       251  26 
c  3       2493  39<      789  39<    19226  38<     5113  43<      497  51<
c  4        889  14       253  13      3035   6      1745  15       171  17 
c  5        298   5        77   4       540   1       555   5        41   4 
c  6        107   2        17   1       165   0       190   2        11   1 
c  7         32   1         8   0        36   0        53   0         7   1 
c  8          8   0         0   0        10   0        15   0         1   0 
c  9         17   0         1   0        21   0        24   0         1   0 
c 10          5   0         0   0         5   0         7   0         0   0 
c 11          0   0         0   0         0   0         0   0         0   0 
c 12          0   0         0   0         0   0         0   0         0   0 
c 13          0   0         0   0         0   0         0   0         0   0 
c 14          0   0         0   0         0   0         0   0         0   0 
c 15          0   0         0   0         0   0         0   0         0   0 
c 
c avg             2.9           2.8           2.5           3.0           3.1
c std             1.1           0.9           0.7           1.0           0.9
c 
c 163042 decisions, 7303 conflicts, 417.4 conflicts/sec
c 23626118 propagations, 1.4 megaprops/sec
c 17.5 seconds, 48.0 MB
c 
c    0.792   5% analysis
c    0.676   4% block
c    0.040   0% bump
c    0.000   0% card
c    1.968  11% cce
c    1.056   6% cliff
c    0.024   0% cutwidth
c    0.164   1% decide
c    0.000   0% force
c    1.180   7% gc
c    0.488   3% cgrclsr
c    0.544   3% decomp
c    0.368   2% defrag
c    4.760  27% elim
c    1.340   8% gauss
c    0.452   3% lift
c    0.060   0% mincls
c    0.080   0% phase
c    0.192   1% probe
c    0.016   0% reduce
c    0.292   2% restart
c    0.148   1% ternres
c    0.080   0% transred
c    0.520   3% unhide
c ==================================
c    0.032   0% preprocessing     0%
c   12.517  72% inprocessing    100%
c ==================================
c   12.549  72% simplifying
c    0.000   0% lookahead
c    4.932  28% search
c ==================================
c   17.497 100% all
c
s SATISFIABLE
